tsp_instances/TSP20/instance52.tsp
NODE_COORD_SECTION
0 49 177
1 96 160
2 168 59
3 164 130
4 24 9
5 67 200
6 186 136
7 57 131
8 103 157
9 12 44
10 139 186
11 108 135
12 51 12
13 97 163
14 49 123
15 151 30
16 62 109
17 44 78
18 199 180
19 83 119
