tsp_instances/TSP20/instance52.opt.tour
TOUR_SECTION
1
2
14
9
12
20
8
15
17
18
10
5
13
16
3
4
7
19
11
6
-1